(set-logic QF_S)
(declare-fun var0 () String)
(assert (RegexIn var0 (RegexConcat (RegexPlus (RegexPlus (RegexUnion (RegexUnion (RegexUnion (Str2Reg "000") (Str2Reg "11")) (RegexUnion (Str2Reg "22") (Str2Reg "33"))) (RegexUnion (RegexUnion (Str2Reg "44") (Str2Reg "5")) (RegexUnion (Str2Reg "666") (Str2Reg "777")))))) (RegexUnion (RegexStar (RegexUnion (RegexStar (RegexUnion (Str2Reg "888") (Str2Reg "9"))) (RegexStar (RegexPlus (Str2Reg "aaa"))))) (RegexStar (RegexPlus (RegexPlus (RegexUnion (Str2Reg "b") (Str2Reg "c")))))))))
(assert (<= 15 (Length var0)))
(check-sat)